sat
(:max-memory                   18.20
 :memory                       18.03
 :nlsat-conflicts              4
 :nlsat-irrational-assignments 4
 :nlsat-learned-added          4
 :nlsat-propagations           40
 :nlsat-stages                 19
 :num-allocs                   8318
 :rlimit-count                 5740
 :time                         0.00
 :total-time                   0.01)
